
  27    4
   1   1   1   1

   0   0   0   0   0  14 2 3 4 5 6 7 8 9 10 22 23 24 25 26 
   2   0   0   0   1   4   17   16   15   12
   2   0   1   0   0   4   21   19   15   13
   2   0   0   1   0   4   20   17   15   13
   8   1   1   1   0   3   14   13   11
   7   0   1   0   1   3   19   16   14
   10   0   0   0   1   2   18   14
   8   1   0   1   1   2   18   13
   9   0   1   1   1   2   17   14
   5   0   0   1   0   2   16   14
   3   1   1   1   0   1   15
   4   1   0   0   0   1   13
   7   1   0   1   1   1   27
   8   1   0   1   0   1   27
   8   0   1   0   1   1   27
   6   1   1   0   0   1   27
   10   1   0   1   1   1   27
   4   1   0   1   0   1   27
   2   0   0   0   1   1   27
   9   1   0   0   0   1   27
   2   1   1   1   1   1   27
   8   0   1   0   0   1   27
   5   1   1   1   1   1   27
   7   0   1   1   0   1   27
   6   0   0   1   0   1   27
   9   1   1   1   0   1   27
   0   0   0   0   0   0 
